(define-sort Feature () Bool)
(declare-const f0 Feature)
(declare-const f1 Feature)
(declare-const f2 Feature)
(declare-const f3 Feature)
(declare-const f4 Feature)
(declare-const f5 Feature)
(declare-const f6 Feature)
(declare-const f7 Feature)
(declare-const f8 Feature)
(declare-const f9 Feature)
(declare-const f10 Feature)

(assert f0)
(assert (and
   (=> f1 f0)
   (=> f2 f1)
   (=> f3 f2)
   (=> f4 f3)
   (=> f5 f4)
   (=> f6 f5)
   (=> f7 f6)
   (=> f8 f7)
   (=> f9 f8)
   (=> f10 f9)
))

(assert (and f9 f10))
(assert (and f9 f9 f10 f10))
(check-sat)